SCIP Status        : solving was interrupted [time limit reached]
Total Time         :    3600.01
  solving          :    3600.01
  presolving       :       0.46 (included in solving)
  reading          :       0.00
  copying          :       2.34 (73 #copies) (minimal 0.00, maximal 0.11, average 0.03)
Original Problem   :
  Problem name     : bbbenchmark/g05_100.9.cut
  Variables        : 101 (100 binary, 0 integer, 0 implicit integer, 1 continuous)
  Constraints      : 1 initial, 1 maximal
  Objective        : minimize, 1 non-zeros (abs.min = 1, abs.max = 1)
Presolved Problem  :
  Problem name     : t_bbbenchmark/g05_100.9.cut
  Variables        : 1801 (100 binary, 0 integer, 1685 implicit integer, 16 continuous)
  Constraints      : 1731 initial, 8294 maximal
  Objective        : minimize, 1 non-zeros (abs.min = 1, abs.max = 1)
  Nonzeros         : 8511 constraint, 202 clique table
Presolvers         :   ExecTime  SetupTime  Calls  FixedVars   AggrVars   ChgTypes  ChgBounds   AddHoles    DelCons    AddCons   ChgSides   ChgCoefs
  boundshift       :       0.00       0.00      0          0          0          0          0          0          0          0          0          0
  convertinttobin  :       0.00       0.00      0          0          0          0          0          0          0          0          0          0
  domcol           :       0.00       0.00      1          0          0          0          0          0          0          0          0          0
  dualagg          :       0.00       0.00      0          0          0          0          0          0          0          0          0          0
  dualcomp         :       0.00       0.00      1          0          0          0          0          0          0          0          0          0
  dualinfer        :       0.00       0.00      0          0          0          0          0          0          0          0          0          0
  dualsparsify     :       0.00       0.00      1          0          0          0          0          0          0          0          0          0
  gateextraction   :       0.00       0.00      0          0          0          0          0          0          0          0          0          0
  implics          :       0.00       0.00      2          0          0          0          0          0          0          0          0          0
  inttobinary      :       0.00       0.00      0          0          0          0          0          0          0          0          0          0
  qpkktref         :       0.00       0.00      0          0          0          0          0          0          0          0          0          0
  redvub           :       0.00       0.00      0          0          0          0          0          0          0          0          0          0
  sparsify         :       0.00       0.00      1          0          0          0          0          0          0          0          0          0
  stuffing         :       0.00       0.00      0          0          0          0          0          0          0          0          0          0
  trivial          :       0.00       0.00      4          0          0          0          0          0          0          0          0          0
  tworowbnd        :       0.00       0.00      0          0          0          0          0          0          0          0          0          0
  dualfix          :       0.00       0.00      4          0          0          0          0          0          0          0          0          0
  genvbounds       :       0.00       0.00      0          0          0          0          0          0          0          0          0          0
  probing          :       0.30       0.00      1          0          0          0          0          0          0          0          0          0
  pseudoobj        :       0.00       0.00      1          0          0          0          1          0          0          0          0          0
  symmetry         :       0.00       0.00      0          0          0          0          0          0          0          0          0          0
  vbounds          :       0.00       0.00      1          0          0          0          0          0          0          0          0          0
  varbound         :       0.00       0.00      2          0          0          0          0          0          0          0          0          0
  and              :       0.00       0.01      2          0          0          0          0          0          0          0          0          0
  linear           :       0.00       0.00      2          0          0          0          0          0          0          0          0          0
  logicor          :       0.00       0.00      0          0          0          0          0          0          0          0          0          0
  bounddisjunction :       0.00       0.00      0          0          0          0          0          0          0          0          0          0
  nonlinear        :       0.15       0.01      5          0          0          0          1          0          0       1730          0          0
  benders          :       0.00       0.00      0          0          0          0          0          0          0          0          0          0
  components       :       0.00       0.00      1          0          0          0          0          0          0          0          0          0
  root node        :          -          -      -          0          -          -         13          -          -          -          -          -
Constraints        :     Number  MaxNumber  #Separate #Propagate    #EnfoLP    #EnfoRelax  #EnfoPS    #Check   #ResProp    Cutoffs    DomReds       Cuts    Applied      Conss   Children
  benderslp        :          0          0          0          0     128255          0          0       8390          0          0          0          0          0          0          0
  integral         :          0          0          0          0     128255          0          0       8390          0          0       1523          0          0        997     255400
  varbound         :         15         15        160     756152          0          0          0       2289          0          0      81127          0          0          0          0
  and              :       1685       1685     142375     795356          0          0          0       2289     404278         18    1070264        813        785          0          0
  linear           :         31+        40        160     795408          0          0          0       2287       1089         21     614728          0          0          0          0
  logicor          :          0+      6009          0     127046          0          0          0          0        452        438        113          0          0          0          0
  bounddisjunction :          0+       569          0      68501          0          0          0          0          0         29          6          0          0          0          0
  benders          :          0          0          0          0          0          0          0         36          0          0          0          0          0          0          0
  countsols        :          0          0          0          0          0          0          0         36          0          0          0          0          0          0          0
  components       :          0          0          0          0          0          0          0          0          0          0          0          0          0          0          0
Constraint Timings :  TotalTime  SetupTime   Separate  Propagate     EnfoLP     EnfoPS     EnfoRelax   Check    ResProp    SB-Prop
  benderslp        :       0.09       0.00       0.00       0.00       0.09       0.00       0.00       0.00       0.00       0.00
  integral         :      69.84       0.00       0.00       0.00      69.66       0.00       0.00       0.18       0.00       0.00
  varbound         :       1.26       0.00       0.00       1.25       0.00       0.00       0.00       0.01       0.00       0.00
  and              :     105.34       0.01      73.28      30.84       0.00       0.00       0.00       0.50       0.34       0.37
  linear           :       5.43       0.00       0.05       5.33       0.00       0.00       0.00       0.00       0.01       0.04
  logicor          :       8.87       0.00       0.00       8.85       0.00       0.00       0.00       0.00       0.01       0.01
  bounddisjunction :       1.24       0.00       0.00       1.24       0.00       0.00       0.00       0.00       0.00       0.00
  benders          :       0.00       0.00       0.00       0.00       0.00       0.00       0.00       0.00       0.00       0.00
  countsols        :       0.00       0.00       0.00       0.00       0.00       0.00       0.00       0.00       0.00       0.00
  components       :       0.21       0.00       0.00       0.20       0.00       0.00       0.00       0.00       0.00       0.01
Propagators        : #Propagate   #ResProp    Cutoffs    DomReds
  dualfix          :          4          0          0          0
  genvbounds       :          0          0          0          0
  nlobbt           :          0          0          0          0
  obbt             :          0          0          0          0
  probing          :          0          0          0          0
  pseudoobj        :     578116          0          0        127
  redcost          :     285817          0          0     178425
  rootredcost      :         15          0          0          0
  symmetry         :          0          0          0          0
  vbounds          :     142890          0          0          0
Propagator Timings :  TotalTime  SetupTime   Presolve  Propagate    ResProp    SB-Prop
  dualfix          :       0.00       0.00       0.00       0.00       0.00       0.00
  genvbounds       :       0.55       0.00       0.00       0.55       0.00       0.00
  nlobbt           :       0.00       0.00       0.00       0.00       0.00       0.00
  obbt             :       0.00       0.00       0.00       0.00       0.00       0.00
  probing          :       0.30       0.00       0.30       0.00       0.00       0.00
  pseudoobj        :       0.91       0.00       0.00       0.91       0.00       0.00
  redcost          :      16.19       0.00       0.00      16.19       0.00       0.00
  rootredcost      :       0.80       0.00       0.00       0.79       0.00       0.01
  symmetry         :       0.43       0.00       0.00       0.43       0.00       0.00
  vbounds          :       0.74       0.00       0.00       0.70       0.00       0.04
Conflict Analysis  :       Time      Calls    Success    DomReds  Conflicts   Literals    Reconvs ReconvLits   Dualrays   Nonzeros   LP Iters   (pool size: [10000,10000])
  propagation      :       0.00        485        340          -        409       63.4          0        0.0          -          -          -
  infeasible LP    :       0.09         63         63          -       2587      144.1          0        0.0        112      169.8          0
  bound exceed. LP :      19.21       5695       5430          -     115849      108.1          1       55.0          0        0.0      48589
  strong branching :       0.00          0          0          -          0        0.0          0        0.0          -          -          0
  pseudo solution  :       0.00          0          0          -          0        0.0          0        0.0          -          -          -
  applied globally :       0.35          -          -          0      26964      111.5          -          -        112          -          -
  applied locally  :          -          -          -          0          0        0.0          -          -          0          -          -
Separators         :   ExecTime  SetupTime      Calls  RootCalls    Cutoffs    DomReds  FoundCuts ViaPoolAdd  DirectAdd    Applied ViaPoolApp  DirectApp      Conss
  cut pool         :       4.27          -      25962        192          -          -      36205     824173          -          -          -          -          -    (maximal pool size:       2730)
  aggregation      :     396.37       0.00       4665        160          0          0          9         10          0          7          7          0          0
  > cmir           :          -          -          -          -          -          -          -         10          0          7          7          0          -
  > flowcover      :          -          -          -          -          -          -          -          0          0          0          0          0          -
  > knapsackcover  :          -          -          -          -          -          -          -          0          0          0          0          0          -
  cgmip            :       0.00       0.00          0          0          0          0          0          0          0          0          0          0          0
  clique           :       0.00       0.00        160        160          0          0          0          0          0          0          0          0          0
  closecuts        :       0.00       0.00          0          0          0          0          0          0          0          0          0          0          0
  convexproj       :       0.00       0.00          0          0          0          0          0          0          0          0          0          0          0
  disjunctive      :       0.00       0.00          0          0          0          0          0          0          0          0          0          0          0
  eccuts           :       0.00       0.00          0          0          0          0          0          0          0          0          0          0          0
  gauge            :       0.00       0.00          0          0          0          0          0          0          0          0          0          0          0
  gomory           :       0.00       0.00          0          0          0          0          0          0          0          0          0          0          0
  > gomorymi       :          -          -          -          -          -          -          -          0          0          0          0          0          -
  > strongcg       :          -          -          -          -          -          -          -          0          0          0          0          0          -
  impliedbounds    :       0.23       0.00       4665        160          0          0          0          0          0          0          0          0          0
  interlattice     :       0.55       0.00         80         80          0          0         80          0         80         80          0         80          0
  interminor       :       0.00       0.00          0          0          0          0          0          0          0          0          0          0          0
  intersub         :       1.84       0.00         40         40          0          0         40          0         40         40          0         40          0
  intobj           :       0.00       0.00          0          0          0          0          0          0          0          0          0          0          0
  mcf              :       0.01       0.00          1          1          0          0          0          0          0          0          0          0          0
  minor            :       0.00       0.00          0          0          0          0          0          0          0          0          0          0          0
  mixing           :       0.00       0.00       4665        160          0          0          0          0          0          0          0          0          0
  oddcycle         :       0.00       0.00          0          0          0          0          0          0          0          0          0          0          0
  rapidlearning    :       0.00       0.00          0          0          0          0          0          0          0          0          0          0          0
  rlt              :       0.00       0.00         10         10          0          0          0          0          0          0          0          0          0
  zerohalf         :      36.54       0.00       4088         20          0          0      36196     824163          0     119819     119819          0          0
Cutselectors       :   ExecTime  SetupTime      Calls  RootCalls   Selected     Forced   Filtered  RootSelec   RootForc   RootFilt 
  hybrid           :       0.74       0.00      11205        158     120731          0     704375        319          0         20
Pricers            :   ExecTime  SetupTime      Calls       Vars
  problem variables:       0.00          -          0          0
Branching Rules    :   ExecTime  SetupTime   BranchLP  BranchExt   BranchPS    Cutoffs    DomReds       Cuts      Conss   Children
  allfullstrong    :       0.00       0.00          0          0          0          0          0          0          0          0
  cloud            :       0.00       0.00          0          0          0          0          0          0          0          0
  distribution     :       0.00       0.00          0          0          0          0          0          0          0          0
  fullstrong       :       0.00       0.00          0          0          0          0          0          0          0          0
  inference        :       0.00       0.00          0          0          0          0          0          0          0          0
  leastinf         :       0.00       0.00          0          0          0          0          0          0          0          0
  lookahead        :       0.00       0.00          0          0          0          0          0          0          0          0
  mostinf          :       0.00       0.00          0          0          0          0          0          0          0          0
  multaggr         :       0.00       0.00          0          0          0          0          0          0          0          0
  nodereopt        :       0.00       0.00          0          0          0          0          0          0          0          0
  pscost           :       0.00       0.00          0          0          0          0          0          0          0          0
  random           :       0.00       0.00          0          0          0          0          0          0          0          0
  relpscost        :      69.15       0.00     128255          0          0          0       1523          0        997     255400
  vanillafullstrong:       0.00       0.00          0          0          0          0          0          0          0          0
Primal Heuristics  :   ExecTime  SetupTime      Calls      Found       Best
  LP solutions     :       0.00          -          -          0          0
  relax solutions  :       0.00          -          -          0          0
  pseudo solutions :       0.00          -          -          0          0
  strong branching :       0.02          -          -          0          0
  actconsdiving    :       0.00       0.00          0          0          0
  adaptivediving   :      12.83       0.00         98          1          1
  alns             :       5.02       0.00         37          9          9
  bound            :       0.00       0.00          0          0          0
  clique           :       0.01       0.00          1          0          0
  coefdiving       :       0.00       0.00          0          0          0
  completesol      :       0.00       0.00          0          0          0
  conflictdiving   :     146.43       0.00        964          1          1
  crossover        :       2.27       0.00          3          0          0
  dins             :       0.00       0.00          0          0          0
  distributiondivin:      69.02       0.00        282          0          0
  dps              :       0.00       0.00          0          0          0
  dualval          :       0.00       0.00          0          0          0
  farkasdiving     :       0.02       0.00          0          0          0
  feaspump         :       0.96       0.00          1          1          1
  fixandinfer      :       0.00       0.00          0          0          0
  fracdiving       :      51.66       0.00        392          0          0
  gins             :       0.22       0.00          0          0          0
  guideddiving     :      56.50       0.00        413          4          4
  indicator        :       0.19       0.00          0          0          0
  indicatordiving  :       0.00       0.00          0          0          0
  intdiving        :       0.00       0.00          0          0          0
  intshifting      :       0.44       0.00         54          0          0
  linesearchdiving :      49.49       0.00        375          1          1
  localbranching   :       0.00       0.00          0          0          0
  locks            :       0.01       0.00          1          0          0
  lpface           :       0.21       0.00          0          0          0
  mpec             :     113.68       0.00         11          0          0
  multistart       :       0.00       0.00          0          0          0
  mutation         :       0.00       0.00          0          0          0
  nlpdiving        :      11.56       0.00          6          0          0
  objpscostdiving  :      48.73       0.00         95          5          2
  octane           :       0.00       0.00          0          0          0
  ofins            :       0.14       0.00          0          0          0
  oneopt           :       0.22       0.00         19          0          0
  padm             :       0.00       0.00          0          0          0
  proximity        :       0.00       0.00          0          0          0
  pscostdiving     :      50.75       0.00        326          1          1
  randrounding     :       1.96       0.00       8350          0          0
  rens             :       0.00       0.00          0          0          0
  reoptsols        :       0.00       0.00          0          0          0
  repair           :       0.00       0.00          0          0          0
  rins             :       6.20       0.00         33          1          1
  rootsoldiving    :      36.51       0.00         54          4          0
  rounding         :       1.70       0.00       5068          0          0
  shiftandpropagate:       0.00       0.00          0          0          0
  shifting         :      37.18       0.00       8929          2          2
  simplerounding   :       0.18       0.00          0          0          0
  subnlp           :     206.48       0.00          0          0          0
  trivial          :       0.01       0.00          2          2          2
  trivialnegation  :       0.00       0.00          0          0          0
  trustregion      :       0.00       0.00          0          0          0
  trysol           :       0.30       0.00          0          0          0
  twoopt           :       0.00       0.00          0          0          0
  undercover       :       2.41       0.00          1          1          1
  vbounds          :       0.00       0.00          0          0          0
  veclendiving     :      48.08       0.00        375          0          0
  zeroobj          :       0.00       0.00          0          0          0
  zirounding       :       0.46       0.00       1000          0          0
  other solutions  :          -          -          -          0          -
Diving (single)    :      Calls      Nodes   LP Iters Backtracks  Conflicts   MinDepth   MaxDepth   AvgDepth  RoundSols  NLeafSols  MinSolDpt  MaxSolDpt  AvgSolDpt
  actconsdiving    :          0          -          -          -          -          -          -          -          -          -          -          -          -
  coefdiving       :          0          -          -          -          -          -          -          -          -          -          -          -          -
  conflictdiving   :        964      40483    1253574       1034      54482         53         90       63.6          0          1         90         90       90.0
  distributiondivin:        282      11203     425925        306       5085         51         69       60.7          0          -          -          -          -
  farkasdiving     :          0          -          -          -          -          -          -          -          -          -          -          -          -
  fracdiving       :        392      37520     421672         99       1478         64        278      117.1          0          -          -          -          -
  guideddiving     :        413      39178     460228         75       2817         62        214      116.9          0          4        110        117      112.0
  indicatordiving  :          0          -          -          -          -          -          -          -          -          -          -          -          -
  linesearchdiving :        375      15553     431805        254      17622         46         93       63.4          0          1         77         77       77.0
  pscostdiving     :        326      14551     436089        340       7648         49         82       66.4          0          1         82         82       82.0
  veclendiving     :        375      15208     421494        321      23264         54         83       63.8          0          -          -          -          -
Diving (adaptive)  :      Calls      Nodes   LP Iters Backtracks  Conflicts   MinDepth   MaxDepth   AvgDepth  RoundSols  NLeafSols  MinSolDpt  MaxSolDpt  AvgSolDpt
  actconsdiving    :         10        372      12190         12         92         55         64       60.4          0          -          -          -          -
  coefdiving       :         27       1132      29170         18       1532         55         93       66.0          0          -          -          -          -
  conflictdiving   :          0          -          -          -          -          -          -          -          -          -          -          -          -
  distributiondivin:          0          -          -          -          -          -          -          -          -          -          -          -          -
  farkasdiving     :          0          -          -          -          -          -          -          -          -          -          -          -          -
  fracdiving       :          2        250       2829          1         16        111        175      143.0          0          -          -          -          -
  guideddiving     :         23       1700      20367          4        239         64        171      105.5          0          1        113        113      113.0
  indicatordiving  :          0          -          -          -          -          -          -          -          -          -          -          -          -
  linesearchdiving :         13        575      17565          6        564         50         75       61.9          0          -          -          -          -
  pscostdiving     :          3        145       4139          3         96         68         69       68.3          0          -          -          -          -
  veclendiving     :         20        593      14960         12       1002         56         79       64.7          0          -          -          -          -
Neighborhoods      :      Calls  SetupTime  SolveTime SolveNodes       Sols       Best       Exp3  EpsGreedy        UCB TgtFixRate  Opt  Inf Node Stal  Sol  Usr Othr Actv
  rens             :          3       0.09       0.20         74          0          0    0.00000   -1.00000    0.46527      0.662    0    2    0    1    0    0    0    1
  rins             :          2       0.02       0.00          1          0          0    0.00000   -1.00000    0.30345      0.700    0    1    0    0    0    0    1    1
  mutation         :          7       0.47       0.52        423          2          2    0.00000   -1.00000    0.47911      0.723    0    3    0    4    0    0    0    1
  localbranching   :         13       0.71       1.63       1412          7          7    0.00000   -1.00000    0.48860      0.874    1    0    0   11    1    0    0    1
  crossover        :          4       0.11       0.20         95          0          0    0.00000   -1.00000    0.45936      0.522    0    3    0    1    0    0    0    1
  proximity        :          2       0.05       0.14         70          0          0    0.00000   -1.00000    0.47504      0.850    0    1    0    1    0    0    0    1
  zeroobjective    :          3       0.17       0.12        230          0          0    0.00000   -1.00000    0.47113      0.863    0    1    0    2    0    0    0    1
  dins             :          3       0.18       0.13        216          0          0    0.00000   -1.00000    0.47140      0.863    0    1    0    2    0    0    0    1
  trustregion      :          0       0.00       0.00          0          0          0    0.00000   -1.00000    1.00000      0.900    0    0    0    0    0    0    0    0
Expressions        :   #IntEval  IntEvalTi   #RevProp  RevPropTi    DomReds    Cutoffs  #Estimate  EstimTime  Branching  #Simplify SimplifyTi Simplified
  pow              :          0       0.00          0       0.00          0          0          0       0.00          0          0       0.00          0
  prod             :       9900       0.00          0       0.00          0          0          0       0.00          0       6635       0.01          0
  sum              :          8       0.01          2       0.00          0          0          0       0.00          0          3       0.02          2
  var              :       6212       0.00          0       0.00          0          0          0       0.00          0      15273       0.01          0
  varidx           :          0       0.00          0       0.00          0          0          0       0.00          0          0       0.00          0
LP                 :       Time      Calls Iterations  Iter/call   Iter/sec  Time-0-It Calls-0-It    ItLimit
  primal LP        :     133.40      16020          0       0.00       0.00     133.27      16020
  dual LP          :    1635.99     240493    8183858      36.80    5002.39       8.80      18109
  lex dual LP      :       0.00          0          0       0.00          -
  barrier LP       :       0.00          0          0       0.00          -       0.00          0
  resolve instable :       0.00          0          0       0.00          -
  diving/probing LP:     490.71      17138    4441190     259.14    9050.54
  strong branching :      29.20       2257     196735      87.17    6737.50          -          -        455
    (at root node) :          -         21       8940     425.71          -
  conflict analysis:       8.83       5080      48589       9.56    5502.72
NLP relaxation     :
  solve time       :      11.15 (15 calls)
  convexity        :  nonconvex (46 linear rows, 0 convex ineq., 0 nonconvex ineq., 1685 nonlinear eq. or two-sided ineq.)
NLP Solvers        :  #Problems  ProblemTi    #Solves  SolveTime      #Iter  Time/Iter      #Okay #TimeLimit #IterLimit #LObjLimit #Interrupt  #NumError #EvalError  #OutOfMem #LicenseEr #OtherTerm   #GlobOpt    #LocOpt  #Feasible #LocInfeas #GlobInfea #Unbounded   #Unknown
  ipopt            :         12       8.82         43     125.96       1787       0.07         43          0          0          0          0          0          0          0          0          0          0         27          0         11          0          0          5
B&B Tree           :
  number of runs   :          1
  nodes            :     210638 (127700 internal, 82938 leaves)
  feasible leaves  :          0
  infeas. leaves   :         42
  objective leaves :      82896
  nodes (total)    :     210638 (127700 internal, 82938 leaves)
  nodes left       :      44186
  max depth        :         72
  max depth (total):         72
  backtracks       :      45973 (21.8%)
  early backtracks :          0 (0.0%)
  nodes exc. ref.  :          0 (0.0%)
  delayed cutoffs  :          4
  repropagations   :        127 (519 domain reductions, 1 cutoffs)
  avg switch length:       6.46
  switching time   :     185.71
Estim. Tree Size   :     422430
Estimation Tree    : 255401 nodes (211215 visited, 127700 internal, 83515 leaves, 44186 open), weight: 0.0000 completed 0.1130
Estimations        :      estim      value      trend resolution     smooth
  wbe              : 32515402068960492          -          -          -          -
  tree-profile     :         -1          -          -          -          -
  gap              :    8268145    0.67485    0.00001        128    8407953
  tree-weight      :     422430    0.00000    0.00000        128     421965
  leaf-frequency   :    4606842    0.39540    0.00001        128    4063459
  ssg              :   16810563    0.82164   -0.00001        128   17723296
  open-nodes       :     422430 44186.00000   29.42008        128     421965
Root Node          :
  First LP value   : -1.00000000000000e+00
  First LP Iters   :       1688 (12984.62 Iter/sec)
  First LP Time    :       0.13
  Final Dual Bound : -9.42642361973629e-01
  Final Root Iters :       7258
  Root LP Estimate : -3.75214084061132e-01
Solution           :
  Solutions found  :         33 (26 improvements)
  First Solution   : +1.00000000000000e+05   (in run 1, after 0 nodes, 0.03 seconds, depth 0, found by <trivial>)
  Gap First Sol.   :   infinite
  Gap Last Sol.    :      53.67 %
  Primal Bound     : -5.64040404040402e-01   (in run 1, after 39122 nodes, 1081.98 seconds, depth 60, found by <alns>)
  Dual Bound       : -8.35796410744491e-01
  Gap              :      48.18 %
Integrals          :      Total       Avg%
  primal-dual      :  125028.92      34.73
  primal-ref       :          -          - (not evaluated)
  dual-ref         :          -          - (not evaluated)
